p cnf 412 698
-3 17 72 76 0
-3 17 72 -76 0
33 22 37 77 0
33 22 37 -77 0
-3 62 65 78 0
-3 62 65 -78 0
15 51 -60 79 0
15 51 -60 -79 0
-75 25 34 80 0
-75 25 34 -80 0
-73 25 42 81 0
-73 25 42 -81 0
-29 -34 -22 82 0
-29 -34 -22 -82 0
28 -64 -27 83 0
28 -64 -27 -83 0
24 58 -29 84 0
24 58 -29 -84 0
55 -9 5 85 0
55 -9 5 -85 0
39 -48 -51 86 0
39 -48 -51 -86 0
6 -71 -10 87 0
6 -71 -10 -87 0
67 14 59 88 0
67 14 59 -88 0
72 -54 9 89 0
72 -54 9 -89 0
5 -41 26 90 0
5 -41 26 -90 0
35 18 48 91 0
35 18 48 -91 0
-62 -28 -11 92 0
-62 -28 -11 -92 0
-67 -48 -11 93 0
-67 -48 -11 -93 0
2 62 19 94 0
2 62 19 -94 0
-29 17 45 95 0
-29 17 45 -95 0
55 -60 -41 96 0
55 -60 -41 -96 0
-42 -57 -16 97 0
-42 -57 -16 -97 0
-50 45 44 98 0
-50 45 44 -98 0
-26 22 21 99 0
-26 22 21 -99 0
49 -61 -50 100 0
49 -61 -50 -100 0
41 -20 -60 101 0
41 -20 -60 -101 0
70 -14 37 102 0
70 -14 37 -102 0
-7 41 58 103 0
-7 41 58 -103 0
9 50 -24 104 0
9 50 -24 -104 0
61 68 42 105 0
61 68 42 -105 0
35 -51 -26 106 0
35 -51 -26 -106 0
75 -52 11 107 0
75 -52 11 -107 0
50 -69 -42 108 0
50 -69 -42 -108 0
-35 51 -42 109 0
-35 51 -42 -109 0
39 66 -53 110 0
39 66 -53 -110 0
11 61 37 111 0
11 61 37 -111 0
-33 -5 -71 112 0
-33 -5 -71 -112 0
45 -14 51 113 0
45 -14 51 -113 0
-3 -5 -69 114 0
-3 -5 -69 -114 0
29 26 64 115 0
29 26 64 -115 0
68 42 74 116 0
68 42 74 -116 0
-49 35 -8 117 0
-49 35 -8 -117 0
26 -47 61 118 0
26 -47 61 -118 0
19 61 36 119 0
19 61 36 -119 0
-10 -58 49 120 0
-10 -58 49 -120 0
12 56 -45 121 0
12 56 -45 -121 0
15 59 6 122 0
15 59 6 -122 0
-70 -52 -56 123 0
-70 -52 -56 -123 0
-12 70 -24 124 0
-12 70 -24 -124 0
-69 17 36 125 0
-69 17 36 -125 0
46 -27 5 126 0
46 -27 5 -126 0
-61 -53 74 127 0
-61 -53 74 -127 0
-75 -70 -2 128 0
-75 -70 -2 -128 0
-18 61 -49 129 0
-18 61 -49 -129 0
-20 -26 72 130 0
-20 -26 72 -130 0
4 -37 39 131 0
4 -37 39 -131 0
24 38 -54 132 0
24 38 -54 -132 0
-48 29 47 133 0
-48 29 47 -133 0
28 -26 -7 134 0
28 -26 -7 -134 0
-56 -12 -64 135 0
-56 -12 -64 -135 0
65 69 -18 136 0
65 69 -18 -136 0
29 -26 -32 137 0
29 -26 -32 -137 0
60 -20 14 138 0
60 -20 14 -138 0
-53 21 -48 139 0
-53 21 -48 -139 0
23 -2 -52 140 0
23 -2 -52 -140 0
67 -44 -36 141 0
67 -44 -36 -141 0
3 25 64 142 0
3 25 64 -142 0
20 -16 -56 143 0
20 -16 -56 -143 0
56 24 71 144 0
56 24 71 -144 0
-69 -31 -19 145 0
-69 -31 -19 -145 0
-12 -33 42 146 0
-12 -33 42 -146 0
-10 45 62 147 0
-10 45 62 -147 0
35 -24 34 148 0
35 -24 34 -148 0
-65 -38 29 149 0
-65 -38 29 -149 0
2 60 67 150 0
2 60 67 -150 0
-18 40 66 151 0
-18 40 66 -151 0
22 21 1 152 0
22 21 1 -152 0
-26 -53 28 153 0
-26 -53 28 -153 0
64 -57 47 154 0
64 -57 47 -154 0
-54 -43 -22 155 0
-54 -43 -22 -155 0
-3 -6 15 156 0
-3 -6 15 -156 0
25 11 -47 157 0
25 11 -47 -157 0
-30 45 43 158 0
-30 45 43 -158 0
66 18 -17 159 0
66 18 -17 -159 0
75 -14 26 160 0
75 -14 26 -160 0
72 -62 19 161 0
72 -62 19 -161 0
37 5 19 162 0
37 5 19 -162 0
-72 -60 8 163 0
-72 -60 8 -163 0
74 -33 54 164 0
74 -33 54 -164 0
73 70 28 165 0
73 70 28 -165 0
-36 12 -73 166 0
-36 12 -73 -166 0
61 -59 57 167 0
61 -59 57 -167 0
-42 63 72 168 0
-42 63 72 -168 0
-10 -25 -70 169 0
-10 -25 -70 -169 0
3 -37 -59 170 0
3 -37 -59 -170 0
-41 -19 12 171 0
-41 -19 12 -171 0
-16 -58 18 172 0
-16 -58 18 -172 0
9 28 70 173 0
9 28 70 -173 0
43 -11 46 174 0
43 -11 46 -174 0
27 1 47 175 0
27 1 47 -175 0
11 71 -48 176 0
11 71 -48 -176 0
-56 -50 27 177 0
-56 -50 27 -177 0
-5 -56 -41 178 0
-5 -56 -41 -178 0
-21 -29 -53 179 0
-21 -29 -53 -179 0
-2 18 53 180 0
-2 18 53 -180 0
-2 -38 4 181 0
-2 -38 4 -181 0
-20 40 -12 182 0
-20 40 -12 -182 0
59 -41 39 183 0
59 -41 39 -183 0
-67 -61 -52 184 0
-67 -61 -52 -184 0
-21 54 60 185 0
-21 54 60 -185 0
6 28 50 186 0
6 28 50 -186 0
-47 -22 73 187 0
-47 -22 73 -187 0
41 52 -75 188 0
41 52 -75 -188 0
28 68 26 189 0
28 68 26 -189 0
47 -58 57 190 0
47 -58 57 -190 0
44 -61 -37 191 0
44 -61 -37 -191 0
-52 41 -61 192 0
-52 41 -61 -192 0
8 -65 30 193 0
8 -65 30 -193 0
-48 21 -24 194 0
-48 21 -24 -194 0
-2 73 43 195 0
-2 73 43 -195 0
67 73 8 196 0
67 73 8 -196 0
-66 -67 -44 197 0
-66 -67 -44 -197 0
-30 -49 -57 198 0
-30 -49 -57 -198 0
-16 28 71 199 0
-16 28 71 -199 0
-24 27 -19 200 0
-24 27 -19 -200 0
14 1 -45 201 0
14 1 -45 -201 0
-25 -19 51 202 0
-25 -19 51 -202 0
-60 25 -65 203 0
-60 25 -65 -203 0
16 -25 74 204 0
16 -25 74 -204 0
-32 12 -52 205 0
-32 12 -52 -205 0
-24 -17 62 206 0
-24 -17 62 -206 0
53 -62 34 207 0
53 -62 34 -207 0
46 40 -55 208 0
46 40 -55 -208 0
6 21 -13 209 0
6 21 -13 -209 0
29 -64 12 210 0
29 -64 12 -210 0
-66 -63 -31 211 0
-66 -63 -31 -211 0
68 -34 55 212 0
68 -34 55 -212 0
56 -34 74 213 0
56 -34 74 -213 0
23 74 -26 214 0
23 74 -26 -214 0
-35 32 46 215 0
-35 32 46 -215 0
60 27 -73 216 0
60 27 -73 -216 0
-8 72 -12 217 0
-8 72 -12 -217 0
22 -4 33 218 0
22 -4 33 -218 0
-25 61 26 219 0
-25 61 26 -219 0
31 55 60 220 0
31 55 60 -220 0
11 10 -48 221 0
11 10 -48 -221 0
-61 31 -47 222 0
-61 31 -47 -222 0
-73 39 -31 223 0
-73 39 -31 -223 0
-9 -21 7 224 0
-9 -21 7 -224 0
14 -21 -20 225 0
14 -21 -20 -225 0
26 55 -13 226 0
26 55 -13 -226 0
19 -34 36 227 0
19 -34 36 -227 0
-14 -15 -28 228 0
-14 -15 -28 -228 0
26 -7 -8 229 0
26 -7 -8 -229 0
68 3 -69 230 0
68 3 -69 -230 0
-53 -42 19 231 0
-53 -42 19 -231 0
54 19 55 232 0
54 19 55 -232 0
-44 49 -45 233 0
-44 49 -45 -233 0
-58 -43 49 234 0
-58 -43 49 -234 0
39 67 -40 235 0
39 67 -40 -235 0
72 -57 23 236 0
72 -57 23 -236 0
36 -25 41 237 0
36 -25 41 -237 0
45 7 -49 238 0
45 7 -49 -238 0
56 -59 34 239 0
56 -59 34 -239 0
66 -13 25 240 0
66 -13 25 -240 0
-11 -41 -34 241 0
-11 -41 -34 -241 0
16 -6 22 242 0
16 -6 22 -242 0
74 -51 -71 243 0
74 -51 -71 -243 0
68 36 -20 244 0
68 36 -20 -244 0
-13 -22 3 245 0
-13 -22 3 -245 0
54 32 41 246 0
54 32 41 -246 0
67 -27 -29 247 0
67 -27 -29 -247 0
35 -55 48 248 0
35 -55 48 -248 0
17 -60 36 249 0
17 -60 36 -249 0
-20 16 -15 250 0
-20 16 -15 -250 0
-40 -39 12 251 0
-40 -39 12 -251 0
-43 -1 -63 252 0
-43 -1 -63 -252 0
-16 37 -32 253 0
-16 37 -32 -253 0
62 14 40 254 0
62 14 40 -254 0
-35 40 -48 255 0
-35 40 -48 -255 0
21 -66 -18 256 0
21 -66 -18 -256 0
-67 -10 -68 257 0
-67 -10 -68 -257 0
-38 -6 -12 258 0
-38 -6 -12 -258 0
49 -38 -55 259 0
49 -38 -55 -259 0
46 -19 -40 260 0
46 -19 -40 -260 0
73 -14 57 261 0
73 -14 57 -261 0
8 38 33 262 0
8 38 33 -262 0
-50 -54 28 263 0
-50 -54 28 -263 0
27 21 41 264 0
27 21 41 -264 0
5 44 45 265 0
5 44 45 -265 0
22 51 -17 266 0
22 51 -17 -266 0
-44 -59 73 267 0
-44 -59 73 -267 0
19 53 -49 268 0
19 53 -49 -268 0
31 47 -18 269 0
31 47 -18 -269 0
42 10 -11 270 0
42 10 -11 -270 0
-46 54 -23 271 0
-46 54 -23 -271 0
27 59 -24 272 0
27 59 -24 -272 0
-46 5 -18 273 0
-46 5 -18 -273 0
-7 1 -12 274 0
-7 1 -12 -274 0
9 -15 65 275 0
9 -15 65 -275 0
-64 -26 59 276 0
-64 -26 59 -276 0
2 -25 54 277 0
2 -25 54 -277 0
70 -23 -9 278 0
70 -23 -9 -278 0
6 -5 -39 279 0
6 -5 -39 -279 0
-71 -56 59 280 0
-71 -56 59 -280 0
21 -63 58 281 0
21 -63 58 -281 0
30 -40 48 282 0
30 -40 48 -282 0
13 -59 -48 283 0
13 -59 -48 -283 0
59 1 50 284 0
59 1 50 -284 0
-66 -14 2 285 0
-66 -14 2 -285 0
-6 19 63 286 0
-6 19 63 -286 0
-11 -52 -65 287 0
-11 -52 -65 -287 0
-9 72 38 288 0
-9 72 38 -288 0
27 1 -33 289 0
27 1 -33 -289 0
23 -13 -64 290 0
23 -13 -64 -290 0
25 -68 4 291 0
25 -68 4 -291 0
38 -66 -3 292 0
38 -66 -3 -292 0
-7 -58 59 293 0
-7 -58 59 -293 0
-2 65 34 294 0
-2 65 34 -294 0
14 37 -73 295 0
14 37 -73 -295 0
-62 16 74 296 0
-62 16 74 -296 0
62 15 -65 297 0
62 15 -65 -297 0
-20 -61 -40 298 0
-20 -61 -40 -298 0
-48 65 75 299 0
-48 65 75 -299 0
51 -50 -6 300 0
51 -50 -6 -300 0
-75 15 -51 301 0
-75 15 -51 -301 0
36 72 3 302 0
36 72 3 -302 0
-21 53 -65 303 0
-21 53 -65 -303 0
26 -8 -42 304 0
26 -8 -42 -304 0
-34 22 30 305 0
-34 22 30 -305 0
28 35 -42 306 0
28 35 -42 -306 0
-66 69 49 307 0
-66 69 49 -307 0
-72 39 60 308 0
-72 39 60 -308 0
39 -50 -29 309 0
39 -50 -29 -309 0
60 -34 -22 310 0
60 -34 -22 -310 0
41 26 -16 311 0
41 26 -16 -311 0
60 19 -42 312 0
60 19 -42 -312 0
41 -8 -23 313 0
41 -8 -23 -313 0
-46 33 21 314 0
-46 33 21 -314 0
73 22 -53 315 0
73 22 -53 -315 0
1 -16 -8 316 0
1 -16 -8 -316 0
-46 31 -26 317 0
-46 31 -26 -317 0
-64 38 -16 318 0
-64 38 -16 -318 0
-15 -29 -60 319 0
-15 -29 -60 -319 0
74 26 2 320 0
74 26 2 -320 0
-34 1 18 321 0
-34 1 18 -321 0
-34 -75 -37 322 0
-34 -75 -37 -322 0
-49 45 15 323 0
-49 45 15 -323 0
51 42 53 324 0
51 42 53 -324 0
-18 -51 20 325 0
-18 -51 20 -325 0
-10 53 -39 326 0
-10 53 -39 -326 0
-9 -6 -7 327 0
-9 -6 -7 -327 0
40 -32 73 328 0
40 -32 73 -328 0
-4 -26 74 329 0
-4 -26 74 -329 0
57 -63 -75 330 0
57 -63 -75 -330 0
-22 48 29 331 0
-22 48 29 -331 0
29 31 41 332 0
29 31 41 -332 0
18 63 -60 333 0
18 63 -60 -333 0
37 -21 -69 334 0
37 -21 -69 -334 0
-59 -40 -27 335 0
-59 -40 -27 -335 0
-35 -62 -38 336 0
-35 -62 -38 -336 0
-24 75 -17 337 0
-24 75 -17 -337 0
18 -52 -26 338 0
18 -52 -26 -338 0
-45 -30 -62 339 0
-45 -30 -62 -339 0
3 49 -11 340 0
3 49 -11 -340 0
-20 -67 37 341 0
-20 -67 37 -341 0
-43 -4 -7 342 0
-43 -4 -7 -342 0
-22 11 18 343 0
-22 11 18 -343 0
-14 57 40 344 0
-14 57 40 -344 0
-45 -24 3 345 0
-45 -24 3 -345 0
-31 -72 27 346 0
-31 -72 27 -346 0
1 21 11 347 0
1 21 11 -347 0
-48 -25 14 348 0
-48 -25 14 -348 0
-75 10 8 349 0
-75 10 8 -349 0
-69 54 51 350 0
-69 54 51 -350 0
-30 -65 25 351 0
-30 -65 25 -351 0
-63 -57 23 352 0
-63 -57 23 -352 0
2 37 -51 353 0
2 37 -51 -353 0
-41 -27 -57 354 0
-41 -27 -57 -354 0
-1 -59 45 355 0
-1 -59 45 -355 0
6 -10 -68 356 0
6 -10 -68 -356 0
-33 -54 32 357 0
-33 -54 32 -357 0
-6 -53 57 358 0
-6 -53 57 -358 0
27 34 35 359 0
27 34 35 -359 0
-74 -7 -10 360 0
-74 -7 -10 -360 0
-46 64 -73 361 0
-46 64 -73 -361 0
-14 51 42 362 0
-14 51 42 -362 0
-65 36 -70 363 0
-65 36 -70 -363 0
56 -43 21 364 0
56 -43 21 -364 0
-41 49 34 365 0
-41 49 34 -365 0
39 63 6 366 0
39 63 6 -366 0
-25 39 75 367 0
-25 39 75 -367 0
9 -74 65 368 0
9 -74 65 -368 0
66 -26 48 369 0
66 -26 48 -369 0
-37 -6 73 370 0
-37 -6 73 -370 0
12 -20 2 371 0
12 -20 2 -371 0
-42 -6 -66 372 0
-42 -6 -66 -372 0
-72 6 -73 373 0
-72 6 -73 -373 0
-67 74 69 374 0
-67 74 69 -374 0
-63 -46 40 375 0
-63 -46 40 -375 0
-74 -51 40 376 0
-74 -51 40 -376 0
27 35 18 377 0
27 35 18 -377 0
-73 29 -15 378 0
-73 29 -15 -378 0
50 -35 51 379 0
50 -35 51 -379 0
-2 -14 -49 380 0
-2 -14 -49 -380 0
-60 29 -33 381 0
-60 29 -33 -381 0
12 -57 5 382 0
12 -57 5 -382 0
-46 55 56 383 0
-46 55 56 -383 0
42 12 52 384 0
42 12 52 -384 0
-26 27 33 385 0
-26 27 33 -385 0
67 -73 -39 386 0
67 -73 -39 -386 0
3 69 42 387 0
3 69 42 -387 0
35 -69 -4 388 0
35 -69 -4 -388 0
31 20 52 389 0
31 20 52 -389 0
-27 -62 -29 390 0
-27 -62 -29 -390 0
70 53 40 391 0
70 53 40 -391 0
-19 5 -16 392 0
-19 5 -16 -392 0
10 -46 32 393 0
10 -46 32 -393 0
53 16 -29 394 0
53 16 -29 -394 0
-32 49 52 395 0
-32 49 52 -395 0
-28 -27 14 396 0
-28 -27 14 -396 0
15 -3 20 397 0
15 -3 20 -397 0
69 73 -2 398 0
69 73 -2 -398 0
-35 62 3 399 0
-35 62 3 -399 0
53 48 74 400 0
53 48 74 -400 0
401 402 403 404 0
401 402 403 -404 0
401 402 -403 404 0
401 402 -403 -404 0
401 -402 403 404 0
401 -402 403 -404 0
401 -402 -403 404 0
401 -402 -403 -404 0
-401 402 403 404 0
-401 402 403 -404 0
-401 402 -403 404 0
-401 402 -403 -404 0
-401 -402 403 404 0
-401 -402 403 -404 0
-401 -402 -403 404 0
-401 -402 -403 -404 0
405 406 407 408 0
405 406 407 -408 0
405 406 -407 408 0
405 406 -407 -408 0
405 -406 407 408 0
405 -406 407 -408 0
405 -406 -407 408 0
405 -406 -407 -408 0
-405 406 407 408 0
-405 406 407 -408 0
-405 406 -407 408 0
-405 406 -407 -408 0
-405 -406 407 408 0
-405 -406 407 -408 0
-405 -406 -407 408 0
-405 -406 -407 -408 0
409 410 411 412 0
409 410 411 -412 0
409 410 -411 412 0
409 410 -411 -412 0
409 -410 411 412 0
409 -410 411 -412 0
409 -410 -411 412 0
409 -410 -411 -412 0
-409 410 411 412 0
-409 410 411 -412 0
-409 410 -411 412 0
-409 410 -411 -412 0
-409 -410 411 412 0
-409 -410 411 -412 0
-409 -410 -411 412 0
-409 -410 -411 -412 0
